

e = 4; % nombre d'events

duracio = [1, 2, 1, 2]; % duracio de la prova, en periodes de 15 min

pistaOcamp = [0, 0, 1, 1];  % pista = 0, camp = 1

pistaNecessaria = [1, 2, 1, 1]; % 1 si necessiten mitja pista, 2 si la necessiten completa


descans = [| 0, 1, 2, 1
           | 1, 0, 1, 1
           | 3, 1, 0, 1
           | 1, 1, 1, 0 |];

participantComu = [| false, false, true , false     % participant comu a proves 1 i 3 (per tot i, j, sempre i < j per indicar si tenen participant comu)
                   | false, false, false, false
                   | false, false, false, false
                   | false, false, false, false |];